84
33
60
8
11
86
96
16
19
4
10
89
69
87
50
90
67
35
66
30
27
105
75
53
74
93
57
63
82
45
100
41
78
14
62
88
42
24
31
2
34
77
28
47
21
99
54
7
6
104
9
64
44
98
71
52
36
40
70
38
43
101
1
83
97
12
51
59
94
25
5
23
65
56
48
81
106
58
91
13
39
79
61
92
0
17
72
102
3
107
37
109
20
108
55
73
18
26
95
32
